1162.97 0
0 115 114 106 107 108 109 120 0
0 72 75 1 62 53 102 103 104 101 35 36 99 100 98 37 95 39 38 96 97 105 57 56 55 54 61 60 0
0 46 118 18 132 116 131 117 119 130 65 19 0
0 78 133 68 70 69 110 111 125 112 126 124 123 122 121 127 128 129 113 81 17 0
0 22 24 23 59 31 30 58 52 51 50 49 48 34 32 47 0
0 82 20 83 84 85 86 87 89 90 16 13 15 88 14 11 12 10 9 8 7 6 5 4 2 42 41 3 40 43 44 45 94 93 29 92 28 27 26 25 21 91 0
0 66 71 33 80 67 79 63 64 77 76 134 74 73 0
